p cnf 412 1057
-61 4 0
-61 34 0
61 -4 -34 0
-62 1 0
-62 5 0
62 -1 -5 0
-63 9 0
-63 62 0
63 -9 -62 0
-64 -4 0
-64 -8 0
64 4 8 0
-65 4 0
-65 8 0
65 -4 -8 0
-66 -64 0
-66 -65 0
66 64 65 0
-67 11 0
-67 66 0
67 -11 -66 0
-68 40 0
-68 67 0
68 -40 -67 0
-69 63 0
-69 68 0
69 -63 -68 0
-70 1 0
-70 2 0
70 -1 -2 0
-71 9 0
-71 70 0
71 -9 -70 0
-72 4 0
-72 71 0
72 -4 -71 0
-73 11 0
-73 16 0
73 -11 -16 0
-74 8 0
-74 73 0
74 -8 -73 0
-75 72 0
-75 -74 0
75 -72 74 0
-76 -69 0
-76 -75 0
76 69 75 0
-77 26 0
-77 -76 0
77 -26 76 0
-78 -61 0
-78 -77 0
78 61 77 0
-79 6 0
-79 16 0
79 -6 -16 0
-80 17 0
-80 79 0
80 -17 -79 0
-81 4 0
-81 63 0
81 -4 -63 0
-82 80 0
-82 81 0
82 -80 -81 0
-83 -60 0
-83 82 0
83 60 -82 0
-84 11 0
-84 40 0
84 -11 -40 0
-85 63 0
-85 -84 0
85 -63 84 0
-86 10 0
-86 85 0
86 -10 -85 0
-87 37 0
-87 86 0
87 -37 -86 0
-88 -83 0
-88 -87 0
88 83 87 0
-89 78 0
-89 88 0
89 -78 -88 0
-90 54 0
-90 -89 0
90 -54 89 0
-91 3 0
-91 70 0
91 -3 -70 0
-92 10 0
-92 91 0
92 -10 -91 0
-93 8 0
-93 11 0
93 -8 -11 0
-94 12 0
-94 93 0
94 -12 -93 0
-95 13 0
-95 94 0
95 -13 -94 0
-96 92 0
-96 95 0
96 -92 -95 0
-97 14 0
-97 96 0
97 -14 -96 0
-98 43 0
-98 97 0
98 -43 -97 0
-99 -90 0
-99 -98 0
99 90 98 0
-100 25 0
-100 50 0
100 -25 -50 0
-101 43 0
-101 -89 0
101 -43 89 0
-102 -43 0
-102 89 0
102 43 -89 0
-103 -101 0
-103 -102 0
103 101 102 0
-104 34 0
-104 38 0
104 -34 -38 0
-105 27 0
-105 -76 0
105 -27 76 0
-106 -104 0
-106 -105 0
106 104 105 0
-107 39 0
-107 86 0
107 -39 -86 0
-108 -83 0
-108 -107 0
108 83 107 0
-109 106 0
-109 108 0
109 -106 -108 0
-110 44 0
-110 -109 0
110 -44 109 0
-111 -44 0
-111 109 0
111 44 -109 0
-112 63 0
-112 80 0
112 -63 -80 0
-113 10 0
-113 112 0
113 -10 -112 0
-114 -60 0
-114 113 0
114 60 -113 0
-115 4 0
-115 85 0
115 -4 -85 0
-116 1 0
-116 -115 0
116 -1 115 0
-117 35 0
-117 -116 0
117 -35 116 0
-118 28 0
-118 -76 0
118 -28 76 0
-119 -117 0
-119 -118 0
119 117 118 0
-120 -114 0
-120 119 0
120 114 -119 0
-121 45 0
-121 -120 0
121 -45 120 0
-122 -45 0
-122 120 0
122 45 -120 0
-123 39 0
-123 -116 0
123 -39 116 0
-124 31 0
-124 -76 0
124 -31 76 0
-125 -123 0
-125 -124 0
125 123 124 0
-126 -114 0
-126 125 0
126 114 -125 0
-127 -48 0
-127 126 0
127 48 -126 0
-128 36 0
-128 -116 0
128 -36 116 0
-129 29 0
-129 -76 0
129 -29 76 0
-130 -128 0
-130 -129 0
130 128 129 0
-131 -114 0
-131 130 0
131 114 -130 0
-132 -46 0
-132 131 0
132 46 -131 0
-133 37 0
-133 -116 0
133 -37 116 0
-134 30 0
-134 -76 0
134 -30 76 0
-135 -133 0
-135 -134 0
135 133 134 0
-136 -114 0
-136 135 0
136 114 -135 0
-137 -47 0
-137 136 0
137 47 -136 0
-138 -132 0
-138 -137 0
138 132 137 0
-139 -127 0
-139 138 0
139 127 -138 0
-140 58 0
-140 139 0
140 -58 -139 0
-141 48 0
-141 -126 0
141 -48 126 0
-142 138 0
-142 141 0
142 -138 -141 0
-143 46 0
-143 -131 0
143 -46 131 0
-144 47 0
-144 -136 0
144 -47 136 0
-145 -132 0
-145 144 0
145 132 -144 0
-146 -143 0
-146 -145 0
146 143 145 0
-147 -142 0
-147 146 0
147 142 -146 0
-148 -140 0
-148 147 0
148 140 -147 0
-149 -122 0
-149 -148 0
149 122 148 0
-150 -121 0
-150 -149 0
150 121 149 0
-151 -111 0
-151 -150 0
151 111 150 0
-152 -110 0
-152 -151 0
152 110 151 0
-153 -103 0
-153 152 0
153 103 -152 0
-154 103 0
-154 -152 0
154 -103 152 0
-155 -153 0
-155 -154 0
155 153 154 0
-156 51 0
-156 155 0
156 -51 -155 0
-157 -100 0
-157 -156 0
157 100 156 0
-158 52 0
-158 103 0
158 -52 -103 0
-159 53 0
-159 101 0
159 -53 -101 0
-160 -158 0
-160 -159 0
160 158 159 0
-161 157 0
-161 160 0
161 -157 -160 0
-162 99 0
-162 161 0
162 -99 -161 0
-163 9 0
-163 34 0
163 -9 -34 0
-164 25 0
-164 -76 0
164 -25 76 0
-165 -163 0
-165 -164 0
165 163 164 0
-166 36 0
-166 86 0
166 -36 -86 0
-167 -83 0
-167 -166 0
167 83 166 0
-168 165 0
-168 167 0
168 -165 -167 0
-169 54 0
-169 -168 0
169 -54 168 0
-170 42 0
-170 97 0
170 -42 -97 0
-171 -169 0
-171 -170 0
171 169 170 0
-172 24 0
-172 50 0
172 -24 -50 0
-173 42 0
-173 -168 0
173 -42 168 0
-174 -42 0
-174 168 0
174 42 -168 0
-175 -173 0
-175 -174 0
175 173 174 0
-176 -102 0
-176 -111 0
176 102 111 0
-177 -150 0
-177 176 0
177 150 -176 0
-178 -102 0
-178 110 0
178 102 -110 0
-179 -101 0
-179 -178 0
179 101 178 0
-180 -177 0
-180 179 0
180 177 -179 0
-181 -175 0
-181 180 0
181 175 -180 0
-182 175 0
-182 -180 0
182 -175 180 0
-183 -181 0
-183 -182 0
183 181 182 0
-184 51 0
-184 183 0
184 -51 -183 0
-185 -172 0
-185 -184 0
185 172 184 0
-186 52 0
-186 175 0
186 -52 -175 0
-187 53 0
-187 173 0
187 -53 -173 0
-188 -186 0
-188 -187 0
188 186 187 0
-189 185 0
-189 188 0
189 -185 -188 0
-190 171 0
-190 189 0
190 -171 -189 0
-191 2 0
-191 34 0
191 -2 -34 0
-192 24 0
-192 -76 0
192 -24 76 0
-193 -191 0
-193 -192 0
193 191 192 0
-194 35 0
-194 86 0
194 -35 -86 0
-195 -83 0
-195 -194 0
195 83 194 0
-196 193 0
-196 195 0
196 -193 -195 0
-197 54 0
-197 -196 0
197 -54 196 0
-198 41 0
-198 97 0
198 -41 -97 0
-199 -197 0
-199 -198 0
199 197 198 0
-200 50 0
-200 60 0
200 -50 -60 0
-201 -102 0
-201 -174 0
201 102 174 0
-202 -111 0
-202 201 0
202 111 -201 0
-203 -150 0
-203 202 0
203 150 -202 0
-204 110 0
-204 201 0
204 -110 -201 0
-205 101 0
-205 -174 0
205 -101 174 0
-206 -173 0
-206 -205 0
206 173 205 0
-207 -204 0
-207 206 0
207 204 -206 0
-208 -203 0
-208 207 0
208 203 -207 0
-209 41 0
-209 -196 0
209 -41 196 0
-210 -41 0
-210 196 0
210 41 -196 0
-211 -209 0
-211 -210 0
211 209 210 0
-212 208 0
-212 -211 0
212 -208 211 0
-213 -208 0
-213 211 0
213 208 -211 0
-214 -212 0
-214 -213 0
214 212 213 0
-215 51 0
-215 214 0
215 -51 -214 0
-216 -200 0
-216 -215 0
216 200 215 0
-217 52 0
-217 211 0
217 -52 -211 0
-218 53 0
-218 209 0
218 -53 -209 0
-219 -217 0
-219 -218 0
219 217 218 0
-220 216 0
-220 219 0
220 -216 -219 0
-221 199 0
-221 220 0
221 -199 -220 0
-222 54 0
-222 -109 0
222 -54 109 0
-223 44 0
-223 97 0
223 -44 -97 0
-224 -222 0
-224 -223 0
224 222 223 0
-225 26 0
-225 50 0
225 -26 -50 0
-226 -110 0
-226 -111 0
226 110 111 0
-227 150 0
-227 -226 0
227 -150 226 0
-228 -150 0
-228 226 0
228 150 -226 0
-229 -227 0
-229 -228 0
229 227 228 0
-230 51 0
-230 229 0
230 -51 -229 0
-231 -225 0
-231 -230 0
231 225 230 0
-232 52 0
-232 226 0
232 -52 -226 0
-233 53 0
-233 110 0
233 -53 -110 0
-234 -232 0
-234 -233 0
234 232 233 0
-235 231 0
-235 234 0
235 -231 -234 0
-236 224 0
-236 235 0
236 -224 -235 0
-237 -208 0
-237 -210 0
237 208 210 0
-238 -209 0
-238 -237 0
238 209 237 0
-239 47 0
-239 97 0
239 -47 -97 0
-240 55 0
-240 57 0
240 -55 -57 0
-241 54 0
-241 -136 0
241 -54 136 0
-242 -240 0
-242 -241 0
242 240 241 0
-243 29 0
-243 50 0
243 -29 -50 0
-244 -137 0
-244 -144 0
244 137 144 0
-245 58 0
-245 -127 0
245 -58 127 0
-246 -141 0
-246 -245 0
246 141 245 0
-247 -244 0
-247 246 0
247 244 -246 0
-248 244 0
-248 -246 0
248 -244 246 0
-249 -247 0
-249 -248 0
249 247 248 0
-250 51 0
-250 249 0
250 -51 -249 0
-251 -243 0
-251 -250 0
251 243 250 0
-252 52 0
-252 244 0
252 -52 -244 0
-253 53 0
-253 144 0
253 -53 -144 0
-254 -252 0
-254 -253 0
254 252 253 0
-255 251 0
-255 254 0
255 -251 -254 0
-256 242 0
-256 255 0
256 -242 -255 0
-257 -239 0
-257 256 0
257 239 -256 0
-258 46 0
-258 97 0
258 -46 -97 0
-259 55 0
-259 56 0
259 -55 -56 0
-260 54 0
-260 -131 0
260 -54 131 0
-261 -259 0
-261 -260 0
261 259 260 0
-262 28 0
-262 50 0
262 -28 -50 0
-263 -132 0
-263 -143 0
263 132 143 0
-264 -127 0
-264 -137 0
264 127 137 0
-265 58 0
-265 264 0
265 -58 -264 0
-266 -137 0
-266 141 0
266 137 -141 0
-267 -144 0
-267 -266 0
267 144 266 0
-268 -265 0
-268 267 0
268 265 -267 0
-269 -263 0
-269 268 0
269 263 -268 0
-270 263 0
-270 -268 0
270 -263 268 0
-271 -269 0
-271 -270 0
271 269 270 0
-272 51 0
-272 271 0
272 -51 -271 0
-273 -262 0
-273 -272 0
273 262 272 0
-274 52 0
-274 263 0
274 -52 -263 0
-275 53 0
-275 143 0
275 -53 -143 0
-276 -274 0
-276 -275 0
276 274 275 0
-277 273 0
-277 276 0
277 -273 -276 0
-278 261 0
-278 277 0
278 -261 -277 0
-279 -258 0
-279 278 0
279 258 -278 0
-280 54 0
-280 -120 0
280 -54 120 0
-281 45 0
-281 97 0
281 -45 -97 0
-282 -280 0
-282 -281 0
282 280 281 0
-283 27 0
-283 50 0
283 -27 -50 0
-284 -121 0
-284 -122 0
284 121 122 0
-285 148 0
-285 -284 0
285 -148 284 0
-286 -148 0
-286 284 0
286 148 -284 0
-287 -285 0
-287 -286 0
287 285 286 0
-288 51 0
-288 287 0
288 -51 -287 0
-289 -283 0
-289 -288 0
289 283 288 0
-290 52 0
-290 284 0
290 -52 -284 0
-291 53 0
-291 121 0
291 -53 -121 0
-292 -290 0
-292 -291 0
292 290 291 0
-293 289 0
-293 292 0
293 -289 -292 0
-294 282 0
-294 293 0
294 -282 -293 0
-295 48 0
-295 97 0
295 -48 -97 0
-296 55 0
-296 59 0
296 -55 -59 0
-297 54 0
-297 -126 0
297 -54 126 0
-298 -296 0
-298 -297 0
298 296 297 0
-299 30 0
-299 50 0
299 -30 -50 0
-300 -127 0
-300 -141 0
300 127 141 0
-301 -58 0
-301 -300 0
301 58 300 0
-302 58 0
-302 300 0
302 -58 -300 0
-303 -301 0
-303 -302 0
303 301 302 0
-304 51 0
-304 303 0
304 -51 -303 0
-305 -299 0
-305 -304 0
305 299 304 0
-306 52 0
-306 300 0
306 -52 -300 0
-307 53 0
-307 141 0
307 -53 -141 0
-308 -306 0
-308 -307 0
308 306 307 0
-309 305 0
-309 308 0
309 -305 -308 0
-310 298 0
-310 309 0
310 -298 -309 0
-311 -295 0
-311 310 0
311 295 -310 0
-312 41 0
-312 42 0
312 -41 -42 0
-313 -41 0
-313 -42 0
313 41 42 0
-314 -312 0
-314 -313 0
314 312 313 0
-315 43 0
-315 44 0
315 -43 -44 0
-316 -43 0
-316 -44 0
316 43 44 0
-317 -315 0
-317 -316 0
317 315 316 0
-318 -314 0
-318 -317 0
318 314 317 0
-319 314 0
-319 317 0
319 -314 -317 0
-320 -318 0
-320 -319 0
320 318 319 0
-321 32 0
-321 320 0
321 -32 -320 0
-322 -32 0
-322 -320 0
322 32 320 0
-323 -321 0
-323 -322 0
323 321 322 0
-324 45 0
-324 46 0
324 -45 -46 0
-325 -45 0
-325 -46 0
325 45 46 0
-326 -324 0
-326 -325 0
326 324 325 0
-327 47 0
-327 48 0
327 -47 -48 0
-328 -47 0
-328 -48 0
328 47 48 0
-329 -327 0
-329 -328 0
329 327 328 0
-330 -326 0
-330 -329 0
330 326 329 0
-331 326 0
-331 329 0
331 -326 -329 0
-332 -330 0
-332 -331 0
332 330 331 0
-333 49 0
-333 332 0
333 -49 -332 0
-334 -49 0
-334 -332 0
334 49 332 0
-335 -333 0
-335 -334 0
335 333 334 0
-336 -323 0
-336 -335 0
336 323 335 0
-337 323 0
-337 335 0
337 -323 -335 0
-338 -336 0
-338 -337 0
338 336 337 0
-339 24 0
-339 25 0
339 -24 -25 0
-340 -24 0
-340 -25 0
340 24 25 0
-341 -339 0
-341 -340 0
341 339 340 0
-342 26 0
-342 27 0
342 -26 -27 0
-343 -26 0
-343 -27 0
343 26 27 0
-344 -342 0
-344 -343 0
344 342 343 0
-345 -341 0
-345 -344 0
345 341 344 0
-346 341 0
-346 344 0
346 -341 -344 0
-347 -345 0
-347 -346 0
347 345 346 0
-348 32 0
-348 347 0
348 -32 -347 0
-349 -32 0
-349 -347 0
349 32 347 0
-350 -348 0
-350 -349 0
350 348 349 0
-351 28 0
-351 29 0
351 -28 -29 0
-352 -28 0
-352 -29 0
352 28 29 0
-353 -351 0
-353 -352 0
353 351 352 0
-354 30 0
-354 31 0
354 -30 -31 0
-355 -30 0
-355 -31 0
355 30 31 0
-356 -354 0
-356 -355 0
356 354 355 0
-357 -353 0
-357 -356 0
357 353 356 0
-358 353 0
-358 356 0
358 -353 -356 0
-359 -357 0
-359 -358 0
359 357 358 0
-360 33 0
-360 359 0
360 -33 -359 0
-361 -33 0
-361 -359 0
361 33 359 0
-362 -360 0
-362 -361 0
362 360 361 0
-363 -350 0
-363 -362 0
363 350 362 0
-364 350 0
-364 362 0
364 -350 -362 0
-365 -363 0
-365 -364 0
365 363 364 0
-366 -20 0
-366 -21 0
366 20 21 0
-367 22 0
-367 -366 0
367 -22 366 0
-368 11 0
-368 12 0
368 -11 -12 0
-369 15 0
-369 368 0
369 -15 -368 0
-370 92 0
-370 369 0
370 -92 -369 0
-371 6 0
-371 12 0
371 -6 -12 0
-372 92 0
-372 371 0
372 -92 -371 0
-373 6 0
-373 7 0
373 -6 -7 0
-374 8 0
-374 373 0
374 -8 -373 0
-375 3 0
-375 62 0
375 -3 -62 0
-376 4 0
-376 375 0
376 -4 -375 0
-377 374 0
-377 376 0
377 -374 -376 0
-378 23 0
-378 -366 0
378 -23 366 0
-379 7 0
-379 11 0
379 -7 -11 0
-380 8 0
-380 379 0
380 -8 -379 0
-381 17 0
-381 379 0
381 -17 -379 0
-382 17 0
-382 73 0
382 -17 -73 0
-383 -374 0
-383 376 0
383 374 -376 0
-384 4 0
-384 91 0
384 -4 -91 0
-385 18 0
-385 19 0
385 -18 -19 0
-386 8 0
-386 79 0
386 -8 -79 0
-387 17 0
-387 373 0
387 -17 -373 0
-388 -386 0
-388 -387 0
388 386 387 0
-389 -374 0
-389 388 0
389 374 -388 0
-390 -385 0
-390 389 0
390 385 -389 0
-391 -384 0
-391 390 0
391 384 -390 0
-392 383 0
-392 391 0
392 -383 -391 0
-393 382 0
-393 392 0
393 -382 -392 0
-394 381 0
-394 393 0
394 -381 -393 0
-395 380 0
-395 394 0
395 -380 -394 0
-396 -378 0
-396 395 0
396 378 -395 0
-397 377 0
-397 396 0
397 -377 -396 0
-398 -63 0
-398 397 0
398 63 -397 0
-399 -372 0
-399 398 0
399 372 -398 0
-400 -370 0
-400 399 0
400 370 -399 0
-401 -367 0
-401 400 0
401 367 -400 0
-402 -365 0
-402 401 0
402 365 -401 0
-403 -338 0
-403 402 0
403 338 -402 0
-404 311 0
-404 403 0
404 -311 -403 0
-405 294 0
-405 404 0
405 -294 -404 0
-406 279 0
-406 405 0
406 -279 -405 0
-407 257 0
-407 406 0
407 -257 -406 0
-408 238 0
-408 407 0
408 -238 -407 0
-409 236 0
-409 408 0
409 -236 -408 0
-410 221 0
-410 409 0
410 -221 -409 0
-411 190 0
-411 410 0
411 -190 -410 0
-412 162 0
-412 411 0
412 -162 -411 0
-412 0
